000 001 001 000 001 002 003 002 002 003 002 003 003 003 003 008 008 008 008 004 002 002 001 001 002 001 003 004 003 004 006
000 001 001 001 002 002 003 003 002 003 002 002 003 004 004 004 006 005 005 002 002 001 001 001 002 001 002 002 003 004 005
000 000 000 000 002 002 002 004 003 005 002 001 001 002 003 005 005 003 005 002 001 001 001 001 001 001 002 002 002 003 004
000 000 000 000 001 001 001 002 002 001 001 001 001 001 002 005 005 003 003 002 000 001 001 001 004 002 002 003 003 004 004
000 000 000 000 000 001 001 001 001 000 001 001 001 001 001 003 005 003 003 001 001 001 002 002 003 002 002 002 004 005 005
000 000 000 000 000 000 000 000 001 000 000 001 001 001 001 002 003 004 002 001 001 001 002 002 003 003 002 -99 004 005 003
000 000 000 000 000 000 000 000 000 000 000 001 001 001 001 003 002 002 001 001 001 001 002 002 001 002 002 -99 -99 003 002
000 000 000 000 000 000 000 000 000 000 000 001 002 001 001 003 001 001 001 000 001 001 001 001 001 001 001 -99 001 002 001
000 -99 000 000 000 000 000 000 000 000 000 000 001 000 000 001 001 001 001 001 000 001 001 001 000 001 001 001 001 002 001
000 000 000 000 000 000 -99 000 -99 000 000 000 000 000 000 001 001 001 000 001 000 001 001 001 000 000 001 001 001 001 001
000 000 000 000 000 000 -99 -99 000 000 000 000 000 000 000 000 000 000 000 001 000 000 001 001 000 000 001 001 001 001 001
000 000 000 000 000 -99 -99 000 000 000 000 000 000 000 000 000 000 000 000 000 000 000 000 000 000 000 000 001 001 000 000
000 000 000 000 000 -99 000 000 000 000 000 000 000 000 000 000 000 000 000 000 000 000 000 000 000 000 000 000 000 000 000
000 000 000 000 000 000 000 000 000 000 000 000 000 000 -99 000 000 -99 000 000 000 000 -99 000 000 000 000 000 000 000 000
000 -99 000 000 000 000 000 000 000 000 000 000 000 000 -99 000 000 000 000 -99 000 000 -99 000 000 000 000 000 000 -99 -99
-99 -99 000 -99 000 000 000 000 000 -99 -99 000 000 000 -99 000 000 000 000 -99 -99 -99 -99 000 000 000 000 000 -99 -99 -99
-99 000 000 000 -99 000 000 000 000 -99 -99 -99 000 000 000 -99 000 000 000 -99 -99 -99 000 000 000 000 000 000 000 000 000
000 000 000 000 -99 -99 000 000 000 000 -99 -99 -99 000 000 -99 000 000 000 -99 -99 -99 000 -99 000 000 -99 -99 -99 000 000
000 000 000 000 -99 -99 -99 000 000 000 000 000 -99 000 -99 -99 000 000 000 000 -99 -99 000 -99 000 -99 -99 -99 -99 000 000
000 000 000 000 -99 -99 -99 000 000 -99 002 001 000 000 -99 -99 000 000 000 000 000 -99 000 -99 -99 -99 -99 -99 -99 -99 -99
000 000 000 000 000 -99 -99 000 000 000 005 001 000 000 000 000 000 000 000 000 000 000 000 -99 -99 -99 -99 -99 -99 -99 -99
000 000 000 000 000 -99 -99 000 000 000 004 001 000 000 000 000 000 000 000 000 000 000 000 -99 -99 -99 -99 -99 -99 -99 -99
000 000 000 000 000 000 -99 000 000 000 001 002 000 000 000 000 000 000 000 000 000 000 000 -99 -99 -99 -99 -99 -99 -99 -99
000 000 000 000 -99 000 000 000 000 000 -99 -99 -99 000 000 000 000 000 -99 000 000 000 000 -99 -99 -99 -99 -99 -99 -99 000
000 000 000 000 -99 000 000 000 000 000 000 -99 000 000 000 000 000 000 -99 000 000 000 000 -99 -99 -99 -99 -99 -99 -99 000
000 000 000 000 -99 000 000 000 000 000 -99 -99 -99 000 000 000 000 000 -99 000 000 000 000 -99 -99 -99 -99 -99 -99 -99 -99
000 000 000 000 000 000 000 000 000 000 -99 -99 -99 000 000 -99 -99 000 000 000 000 000 000 -99 -99 -99 -99 -99 -99 -99 000
000 000 000 -99 000 000 000 -99 -99 -99 -99 -99 -99 -99 -99 -99 000 000 000 000 000 000 000 -99 -99 -99 -99 -99 -99 -99 000
000 000 -99 000 000 000 000 000 000 -99 -99 -99 -99 -99 000 000 000 000 000 000 000 000 -99 -99 -99 -99 -99 -99 -99 -99 -99
000 000 000 000 000 000 000 000 000 -99 -99 -99 -99 -99 000 000 000 000 000 -99 000 000 -99 -99 -99 -99 -99 -99 -99 -99 -99
000 000 000 000 000 000 000 000 000 000 -99 -99 -99 -99 000 000 000 000 -99 -99 000 -99 -99 -99 -99 -99 -99 -99 -99 -99 -99
000 000 000 000 000 000 000 000 000 -99 -99 -99 -99 000 000 -99 000 000 -99 -99 -99 -99 -99 -99 -99 -99 -99 -99 -99 -99 -99
000 000 000 000 000 000 000 000 000 -99 -99 -99 -99 000 000 -99 000 000 -99 -99 -99 -99 000 000 000 -99 -99 -99 -99 -99 -99
000 000 000 000 000 000 000 000 -99 -99 -99 -99 000 000 000 000 000 000 -99 000 000 000 000 000 000 000 000 000 000 000 -99
000 000 000 000 000 000 000 -99 -99 -99 -99 -99 000 000 000 000 000 -99 000 000 000 -99 000 000 000 000 000 000 000 000 -99
000 000 000 000 000 -99 -99 -99 000 -99 -99 -99 000 000 000 000 000 -99 000 000 000 000 000 000 000 000 000 000 000 000 000
000 000 000 000 000 -99 -99 000 000 -99 -99 -99 000 000 000 000 000 000 -99 -99 000 000 000 000 000 000 000 000 000 000 -99
000 000 000 000 000 -99 -99 000 -99 -99 -99 -99 000 000 000 000 000 000 000 -99 000 000 000 000 000 000 000 000 000 000 -99
000 000 000 000 -99 -99 000 000 -99 -99 -99 -99 000 000 000 000 000 -99 -99 000 000 000 000 000 000 000 -99 000 000 -99 000
000 000 000 000 -99 -99 000 000 -99 -99 -99 000 000 000 000 000 000 -99 -99 000 000 000 -99 000 -99 -99 000 000 000 000 000
000 000 000 -99 -99 -99 -99 -99 -99 -99 000 000 000 000 -99 000 000 -99 -99 000 000 000 -99 -99 -99 -99 000 000 -99 000 000
000 000 -99 -99 -99 -99 -99 -99 -99 000 000 000 000 000 000 000 000 -99 000 000 000 -99 -99 -99 -99 000 000 -99 -99 000 000
000 000 000 -99 -99 000 000 -99 -99 000 000 000 000 000 -99 000 000 000 000 000 000 000 -99 -99 -99 000 000 -99 -99 -99 000
000 000 000 -99 -99 000 -99 -99 -99 -99 -99 000 000 000 -99 000 000 000 -99 -99 -99 000 000 000 000 000 -99 -99 -99 -99 -99
000 000 -99 -99 -99 000 000 -99 -99 -99 000 000 000 -99 -99 000 000 000 -99 -99 -99 000 000 000 000 000 000 -99 -99 -99 -99
000 -99 -99 -99 -99 -99 -99 -99 -99 -99 000 000 000 -99 -99 -99 000 000 -99 -99 000 000 000 000 000 000 -99 -99 -99 -99 000
000 -99 -99 -99 -99 -99 -99 -99 -99 000 -99 000 000 000 -99 -99 -99 000 000 000 000 000 000 000 000 000 -99 -99 -99 -99 -99
-99 -99 -99 -99 -99 -99 -99 -99 -99 000 -99 -99 000 000 000 -99 -99 000 -99 000 000 000 000 000 000 000 -99 -99 -99 -99 -99
-99 -99 -99 -99 -99 -99 -99 -99 -99 -99 -99 000 000 000 000 -99 -99 000 000 000 000 000 -99 000 000 000 -99 000 -99 -99 -99
-99 -99 -99 -99 -99 -99 -99 -99 -99 -99 -99 000 000 000 -99 -99 000 000 000 000 000 -99 -99 000 000 000 000 000 -99 -99 -99
-99 -99 -99 -99 -99 -99 -99 -99 -99 -99 -99 000 000 000 -99 -99 000 000 000 000 -99 -99 -99 000 -99 000 000 -99 -99 -99 -99
000 -99 -99 -99 -99 -99 -99 -99 -99 -99 -99 -99 000 000 -99 -99 000 000 000 000 -99 -99 -99 -99 -99 000 000 -99 -99 -99 -99
-99 -99 -99 -99 -99 -99 000 -99 -99 000 000 -99 -99 -99 -99 -99 000 000 000 -99 -99 -99 -99 -99 -99 -99 -99 -99 -99 -99 -99
-99 -99 -99 -99 -99 -99 000 -99 000 000 000 -99 -99 -99 -99 000 000 000 000 -99 -99 -99 -99 -99 -99 -99 -99 -99 -99 -99 -99
-99 -99 -99 -99 -99 000 -99 000 000 000 000 -99 000 -99 -99 000 000 000 -99 -99 -99 -99 -99 -99 -99 -99 -99 -99 -99 -99 -99
